p cnf 103 76
-1 86 -95 -102 -103 0 
-2 86 -95 -102 -103 0 
-2 87 0 
-3 4 7 45 70 72 77 88 0 
-4 3 7 45 70 72 77 -5 6 15 20 61 67 89 0 
-6 5 15 20 61 67 -7 3 4 45 70 72 77 90 0 
-8 -9 -10 -11 23 49 62 -12 91 -95 -102 -103 0 
-13 31 68 82 -14 91 -95 -102 -103 0 
-15 5 6 20 61 67 89 0 
-16 -17 88 0 
-18 42 92 -95 -102 -103 0 
-19 93 -95 -102 -103 0 
-20 5 6 15 61 67 -21 92 -95 -102 -103 0 
-22 25 -23 11 49 62 94 -95 -102 -103 0 
-24 -25 22 87 0 
-26 -10 -14 91 -95 -102 -103 0 
-27 75 -25 22 95 -102 -103 0 
-27 75 -28 -29 94 -95 -102 -103 0 
-28 -30 94 -95 -102 -103 0 
-31 13 68 82 86 -95 -102 -103 0 
-32 36 89 0 
-33 -34 81 86 -95 -102 -103 0 
-29 -35 88 0 
-36 32 -25 22 95 -102 -103 0 
-37 -38 96 -95 -102 -103 0 
-27 75 -39 76 86 -95 -102 -103 0 
-27 75 -29 95 -102 -103 0 
-40 56 -41 55 96 -95 -102 -103 0 
-2 -42 18 97 -95 -102 -103 0 
-43 86 -95 -102 -103 0 
-44 -45 3 4 7 70 72 77 97 -95 -102 -103 0 
-46 -2 97 -95 -102 -103 0 
-34 81 -2 86 -95 -102 -103 0 
-2 -39 76 86 -95 -102 -103 0 
-2 -47 86 -95 -102 -103 0 
-27 75 -48 -2 -49 11 23 62 98 -95 -102 -103 0 
-50 99 -95 -102 -103 0 
-51 -2 -35 -10 91 -95 -102 -103 0 
-2 -52 91 -95 -102 -103 0 
-53 -20 5 6 15 61 67 -54 -55 41 -56 40 96 -95 -102 -103 0 
-43 -2 86 -95 -102 -103 0 
-57 58 78 100 -71 0 
-58 57 78 -59 86 -95 -102 -103 0 
-12 -60 80 -2 -61 5 6 15 20 67 -13 31 68 82 91 -95 -102 -103 0 
-2 95 -102 -103 0 
-2 101 -95 -102 -103 0 
-2 -62 11 23 49 98 -95 -102 -103 0 
-63 87 0 
-2 97 -95 -102 -103 0 
-64 95 -102 -103 0 
-65 97 -95 -102 -103 0 
-11 23 49 62 -13 31 68 82 -2 -12 -52 91 -95 -102 -103 0 
-2 -12 -14 91 -95 -102 -103 0 
-2 -66 102 -95 -103 0 
-2 -14 102 -95 -103 0 
-2 -10 102 -95 -103 0 
-2 -67 5 6 15 20 61 -68 13 31 82 -62 11 23 49 98 -95 -102 -103 0 
-2 -69 98 -95 -102 -103 0 
-2 -70 3 4 7 45 72 77 98 -95 -102 -103 0 
-71 100 103 -95 -102 0 
-72 3 4 7 45 70 77 -73 88 0 
-2 -74 101 -95 -102 -103 0 
-8 -2 89 0 
-75 27 -76 39 89 0 
-76 39 -32 36 89 0 
-77 3 4 7 45 70 72 93 -95 -102 -103 0 
-78 57 58 97 -95 -102 -103 0 
-78 57 58 -79 95 -102 -103 0 
-78 57 58 -80 60 101 -95 -102 -103 0 
-12 -36 32 -2 -66 91 -95 -102 -103 0 
-2 -33 102 -95 -103 0 
-2 -81 34 102 -95 -103 0 
-82 13 31 68 -2 97 -95 -102 -103 0 
-2 -83 97 -95 -102 -103 0 
-2 -84 102 -95 -103 0 
-85 -2 89 0 
